Minimize
  - 14 y_0 - 8 y_1 - 12 y_2 - 12 y_3 - 4 y_4 - 10 y_5 - 10 y_6 - 18 y_7
   - 12 y_8 - 16 y_9 - 9 y_10 - 7 y_11 - 18 y_12 - 11 y_13 - 15 y_14
   - 10 y_15 - 13 y_16 - 14 y_17 - 12 y_18 - 8 y_19 - 12 y_20 - 12 y_21
   - 4 y_22 - 15 y_23 - 14 y_24 - 6 y_25 - 5 y_26 - 11 y_27 - 8 y_28
   - 3 y_29 - 11 y_30 - 13 y_31 - 12 y_32 - 12 y_33 - 7 y_34 - 7 y_35
   - 10 y_36 - 6 y_37 - 9 y_38 - 17 y_39 - 8 y_40 - 15 y_41 - 8 y_42
   - 3 y_43 - 10 y_44 - 7 y_46 - 2 y_47 - 15 y_48 - 9 y_49 + 51 x_0_9
   + 28 x_0_10 + 33 x_0_12 + 71 x_0_15 + 24 x_0_19 + 64 x_0_20 + 42 x_0_22
   + 22 x_0_23 + 63 x_0_24 + 66 x_0_25 + 75 x_0_28 + 67 x_0_29 + 18 x_0_30
   + 92 x_0_33 + 56 x_0_34 + 46 x_0_37 + 60 x_0_39 + 56 x_0_46 + 28 x_1_5
   + 71 x_1_6 + 102 x_1_7 + 101 x_1_12 + 68 x_1_13 + 67 x_1_19 + 67 x_1_20
   + 76 x_1_24 + 23 x_1_29 + 81 x_1_32 + 34 x_1_33 + 47 x_1_34 + 50 x_1_36
   + 50 x_1_37 + 70 x_1_38 + 64 x_1_40 + 40 x_1_44 + 94 x_1_48 + 63 x_2_4
   + 55 x_2_6 + 12 x_2_8 + 46 x_2_11 + 75 x_2_13 + 13 x_2_20 + 48 x_2_22
   + 37 x_2_23 + 56 x_2_26 + 72 x_2_34 + 48 x_2_38 + 30 x_2_40 + 90 x_2_44
   + 49 x_2_45 + 29 x_2_49 + 45 x_3_4 + 29 x_3_7 + 45 x_3_10 + 11 x_3_13
   + 82 x_3_15 + 11 x_3_16 + 55 x_3_23 + 84 x_3_24 + 32 x_3_27 + 52 x_3_28
   + 47 x_3_32 + 87 x_3_39 + 55 x_3_42 + 53 x_3_44 + 27 x_4_5 + 63 x_4_8
   + 36 x_4_13 + 49 x_4_16 + 64 x_4_17 + 61 x_4_20 + 69 x_4_24 + 20 x_4_26
   + 18 x_4_28 + 57 x_4_31 + 34 x_4_33 + 17 x_4_34 + 42 x_4_40 + 52 x_4_49
   + 105 x_5_9 + 53 x_5_13 + 67 x_5_17 + 48 x_5_22 + 21 x_5_25 + 69 x_5_30
   + 32 x_5_34 + 66 x_5_35 + 41 x_5_37 + 100 x_5_41 + 67 x_5_46 + 33 x_6_7
   + 24 x_6_13 + 14 x_6_16 + 23 x_6_22 + 36 x_6_23 + 63 x_6_24 + 13 x_6_27
   + 54 x_6_28 + 71 x_6_33 + 25 x_6_35 + 67 x_6_39 + 68 x_6_41 + 57 x_6_42
   + 42 x_6_43 + 23 x_6_48 + 77 x_7_9 + 98 x_7_11 + 39 x_7_13 + 128 x_7_17
   + 45 x_7_32 + 37 x_7_38 + 53 x_7_40 + 62 x_8_17 + 51 x_8_22 + 49 x_8_23
   + 74 x_8_25 + 65 x_8_30 + 62 x_8_31 + 22 x_8_36 + 90 x_8_44 + 67 x_9_11
   + 46 x_9_19 + 32 x_9_20 + 68 x_9_26 + 48 x_9_27 + 74 x_9_29 + 60 x_9_30
   + 112 x_9_33 + 42 x_9_35 + 74 x_9_37 + 10 x_9_39 + 59 x_9_48 + 50 x_9_49
   + 52 x_10_11 + 20 x_10_18 + 63 x_10_21 + 24 x_10_22 + 23 x_10_23
   + 31 x_10_26 + 16 x_10_27 + 63 x_10_28 + 13 x_10_32 + 37 x_10_37
   + 17 x_10_38 + 44 x_10_41 + 70 x_10_44 + 35 x_10_48 + 99 x_11_12
   + 24 x_11_15 + 78 x_11_16 + 37 x_11_20 + 43 x_11_22 + 72 x_11_23
   + 50 x_11_25 + 64 x_11_32 + 46 x_11_35 + 64 x_11_39 + 54 x_11_41
   + 52 x_11_42 + 23 x_11_43 + 114 x_12_21 + 56 x_12_22 + 54 x_12_23
   + 93 x_12_24 + 51 x_12_26 + 80 x_12_29 + 101 x_12_36 + 93 x_12_39
   + 57 x_12_40 + 80 x_12_42 + 63 x_12_47 + 36 x_13_18 + 89 x_13_21
   + 31 x_13_22 + 25 x_13_30 + 51 x_13_32 + 89 x_13_41 + 45 x_13_42
   + 43 x_13_45 + 45 x_14_18 + 23 x_14_24 + 82 x_14_25 + 62 x_14_26
   + 91 x_14_28 + 107 x_14_33 + 50 x_14_36 + 68 x_14_37 + 47 x_14_49
   + 24 x_15_21 + 47 x_15_22 + 58 x_15_23 + 57 x_15_26 + 43 x_15_29
   + 47 x_15_31 + 52 x_15_32 + 83 x_15_33 + 68 x_15_34 + 81 x_15_44
   + 41 x_15_45 + 5 x_15_49 + 107 x_16_17 + 21 x_16_18 + 75 x_16_20
   + 23 x_16_27 + 12 x_16_30 + 37 x_16_32 + 74 x_16_33 + 38 x_16_35
   + 80 x_16_36 + 20 x_16_38 + 62 x_16_46 + 42 x_16_47 + 60 x_17_20
   + 8 x_17_31 + 73 x_17_33 + 76 x_17_35 + 80 x_17_37 + 87 x_17_39
   + 76 x_17_41 + 57 x_17_45 + 115 x_17_48 + 43 x_17_49 + 15 x_18_19
   + 24 x_18_23 + 17 x_18_32 + 68 x_18_36 + 10 x_18_38 + 71 x_18_44
   + 43 x_18_47 + 15 x_18_48 + 46 x_19_20 + 48 x_19_25 + 24 x_19_26
   + 10 x_19_27 + 57 x_19_28 + 74 x_19_33 + 30 x_19_37 + 32 x_19_43
   + 64 x_19_44 + 34 x_19_46 + 30 x_19_48 + 49 x_20_23 + 10 x_20_24
   + 59 x_20_26 + 79 x_20_28 + 20 x_20_36 + 55 x_20_38 + 17 x_20_41
   + 79 x_20_42 + 47 x_20_45 + 18 x_20_46 + 67 x_21_25 + 43 x_21_29
   + 83 x_21_30 + 77 x_21_33 + 70 x_21_37 + 75 x_21_38 + 64 x_21_39
   + 68 x_21_42 + 46 x_21_45 + 98 x_21_48 + 21 x_21_49 + 9 x_22_26
   + 55 x_22_33 + 49 x_22_36 + 21 x_22_40 + 40 x_22_42 + 21 x_22_43
   + 46 x_22_48 + 46 x_22_49 + 23 x_23_27 + 11 x_23_32 + 64 x_23_36
   + 30 x_23_38 + 27 x_23_40 + 46 x_23_41 + 53 x_23_43 + 91 x_23_44
   + 58 x_23_45 + 58 x_23_47 + 64 x_24_26 + 43 x_24_32 + 39 x_24_35
   + 30 x_24_36 + 70 x_24_37 + 54 x_24_45 + 26 x_24_46 + 71 x_24_48
   + 9 x_25_28 + 12 x_25_34 + 64 x_25_36 + 37 x_25_43 + 25 x_25_45
   + 54 x_25_46 + 19 x_25_47 + 68 x_25_48 + 62 x_25_49 + 34 x_26_28
   + 30 x_26_29 + 6 x_26_37 + 23 x_26_38 + 36 x_26_42 + 15 x_27_32
   + 63 x_27_36 + 20 x_27_48 + 20 x_28_34 + 69 x_28_36 + 4 x_28_42
   + 10 x_28_44 + 32 x_28_45 + 27 x_28_47 + 31 x_29_34 + 39 x_29_35
   + 75 x_29_39 + 68 x_29_41 + 35 x_29_46 + 26 x_30_32 + 74 x_30_33
   + 70 x_30_36 + 67 x_30_39 + 27 x_30_40 + 51 x_30_46 + 67 x_30_49
   + 41 x_31_36 + 77 x_31_41 + 51 x_31_45 + 90 x_32_33 + 16 x_32_40
   + 46 x_32_41 + 44 x_32_43 + 39 x_32_46 + 36 x_33_34 + 46 x_33_37
   + 15 x_33_42 + 47 x_33_45 + 45 x_34_40 + 28 x_34_45 + 66 x_34_49
   + 45 x_35_41 + 25 x_35_43 + 29 x_35_45 + 24 x_35_46 + 40 x_35_48
   + 27 x_37_38 + 35 x_37_44 + 24 x_37_45 + 14 x_37_47 + 59 x_37_49
   + 56 x_38_8 + 59 x_38_42 + 38 x_38_43 + 62 x_38_44 + 37 x_38_45
   + 42 x_38_46 + 44 x_39_40 + 61 x_40_42 + 27 x_40_43 + 51 x_41_43
   + 33 x_41_46 + 11 x_42_44 + 61 x_42_46 + 80 x_42_48 + 67 x_42_49
   + 11 x_43_45 + 20 x_43_47 + 10 x_45_47 + 16 x_46_49 + 56 x_47_48
   + 504 Constant
Subject To
 c_0: y_44 = 1
 c_1_0: y_0 + y_18 + y_48 >= 1
 c_1_1: y_1 >= 1
 c_1_2: y_2 + y_24 >= 1
 c_1_3: y_3 >= 1
 c_1_4: y_4 + y_47 >= 1
 c_1_5: y_5 + y_33 + y_42 >= 1
 c_1_6: y_6 + y_30 + y_38 >= 1
 c_1_7: y_7 + y_12 >= 1
 c_1_8: y_8 + y_20 + y_24 >= 1
 c_1_9: y_9 + y_14 + y_39 >= 1
 c_1_10: y_10 + y_19 + y_35 + y_40 >= 1
 c_1_11: y_11 >= 1
 c_1_12: y_7 + y_12 >= 1
 c_1_13: y_13 >= 1
 c_1_14: y_9 + y_14 >= 1
 c_1_15: y_15 + y_36 + y_49 >= 1
 c_1_16: y_16 >= 1
 c_1_17: y_17 + y_31 >= 1
 c_1_18: y_0 + y_18 + y_27 + y_38 >= 1
 c_1_19: y_10 + y_19 + y_27 + y_35 + y_38 + y_40 >= 1
 c_1_20: y_8 + y_20 + y_24 >= 1
 c_1_21: y_21 >= 1
 c_1_22: y_22 + y_26 >= 1
 c_1_23: y_23 >= 1
 c_1_24: y_2 + y_8 + y_20 + y_24 + y_41 >= 1
 c_1_25: y_25 + y_28 >= 1
 c_1_26: y_22 + y_26 + y_37 >= 1
 c_1_27: y_18 + y_19 + y_27 + y_38 >= 1
 c_1_28: y_25 + y_28 + y_42 + y_44 >= 1
 c_1_29: y_29 >= 1
 c_1_30: y_6 + y_30 + y_38 >= 1
 c_1_31: y_17 + y_31 >= 1
 c_1_32: y_32 >= 1
 c_1_33: y_5 + y_33 >= 1
 c_1_34: y_34 >= 1
 c_1_35: y_10 + y_19 + y_35 + y_40 >= 1
 c_1_36: y_15 + y_36 + y_49 >= 1
 c_1_37: y_26 + y_37 >= 1
 c_1_38: y_6 + y_18 + y_19 + y_27 + y_30 + y_38 >= 1
 c_1_39: y_9 + y_39 >= 1
 c_1_40: y_10 + y_19 + y_35 + y_40 >= 1
 c_1_41: y_24 + y_41 >= 1
 c_1_42: y_5 + y_28 + y_42 >= 1
 c_1_43: y_43 >= 1
 c_1_44: y_28 + y_44 >= 1
 c_1_45: y_45 + y_47 >= 1
 c_1_46: y_46 >= 1
 c_1_47: y_4 + y_45 + y_47 >= 1
 c_1_48: y_0 + y_48 >= 1
 c_1_49: y_15 + y_36 + y_49 >= 1
 c_2_0: - 2 y_0 + x_0_9 + x_0_10 + x_0_12 + x_0_15 + x_0_19 + x_0_20
   + x_0_22 + x_0_23 + x_0_24 + x_0_25 + x_0_28 + x_0_29 + x_0_30 + x_0_33
   + x_0_34 + x_0_37 + x_0_39 + x_0_46 = 0
 c_2_1: - 2 y_1 + x_1_5 + x_1_6 + x_1_7 + x_1_12 + x_1_13 + x_1_19 + x_1_20
   + x_1_24 + x_1_29 + x_1_32 + x_1_33 + x_1_34 + x_1_36 + x_1_37 + x_1_38
   + x_1_40 + x_1_44 + x_1_48 = 0
 c_2_2: - 2 y_2 + x_2_4 + x_2_6 + x_2_8 + x_2_11 + x_2_13 + x_2_20 + x_2_22
   + x_2_23 + x_2_26 + x_2_34 + x_2_38 + x_2_40 + x_2_44 + x_2_45 + x_2_49
   = 0
 c_2_3: - 2 y_3 + x_3_4 + x_3_7 + x_3_10 + x_3_13 + x_3_15 + x_3_16
   + x_3_23 + x_3_24 + x_3_27 + x_3_28 + x_3_32 + x_3_39 + x_3_42 + x_3_44
   = 0
 c_2_4: - 2 y_4 + x_2_4 + x_3_4 + x_4_5 + x_4_8 + x_4_13 + x_4_16 + x_4_17
   + x_4_20 + x_4_24 + x_4_26 + x_4_28 + x_4_31 + x_4_33 + x_4_34 + x_4_40
   + x_4_49 = 0
 c_2_5: - 2 y_5 + x_1_5 + x_4_5 + x_5_9 + x_5_13 + x_5_17 + x_5_22 + x_5_25
   + x_5_30 + x_5_34 + x_5_35 + x_5_37 + x_5_41 + x_5_46 = 0
 c_2_6: - 2 y_6 + x_1_6 + x_2_6 + x_6_7 + x_6_13 + x_6_16 + x_6_22 + x_6_23
   + x_6_24 + x_6_27 + x_6_28 + x_6_33 + x_6_35 + x_6_39 + x_6_41 + x_6_42
   + x_6_43 + x_6_48 = 0
 c_2_7: - 2 y_7 + x_1_7 + x_3_7 + x_6_7 + x_7_9 + x_7_11 + x_7_13 + x_7_17
   + x_7_32 + x_7_38 + x_7_40 = 0
 c_2_8: - 2 y_8 + x_2_8 + x_4_8 + x_8_17 + x_8_22 + x_8_23 + x_8_25
   + x_8_30 + x_8_31 + x_8_36 + x_8_44 + x_38_8 = 0
 c_2_9: - 2 y_9 + x_0_9 + x_5_9 + x_7_9 + x_9_11 + x_9_19 + x_9_20 + x_9_26
   + x_9_27 + x_9_29 + x_9_30 + x_9_33 + x_9_35 + x_9_37 + x_9_39 + x_9_48
   + x_9_49 = 0
 c_2_10: - 2 y_10 + x_0_10 + x_3_10 + x_10_11 + x_10_18 + x_10_21 + x_10_22
   + x_10_23 + x_10_26 + x_10_27 + x_10_28 + x_10_32 + x_10_37 + x_10_38
   + x_10_41 + x_10_44 + x_10_48 = 0
 c_2_11: - 2 y_11 + x_2_11 + x_7_11 + x_9_11 + x_10_11 + x_11_12 + x_11_15
   + x_11_16 + x_11_20 + x_11_22 + x_11_23 + x_11_25 + x_11_32 + x_11_35
   + x_11_39 + x_11_41 + x_11_42 + x_11_43 = 0
 c_2_12: - 2 y_12 + x_0_12 + x_1_12 + x_11_12 + x_12_21 + x_12_22 + x_12_23
   + x_12_24 + x_12_26 + x_12_29 + x_12_36 + x_12_39 + x_12_40 + x_12_42
   + x_12_47 = 0
 c_2_13: - 2 y_13 + x_1_13 + x_2_13 + x_3_13 + x_4_13 + x_5_13 + x_6_13
   + x_7_13 + x_13_18 + x_13_21 + x_13_22 + x_13_30 + x_13_32 + x_13_41
   + x_13_42 + x_13_45 = 0
 c_2_14: - 2 y_14 + x_14_18 + x_14_24 + x_14_25 + x_14_26 + x_14_28
   + x_14_33 + x_14_36 + x_14_37 + x_14_49 = 0
 c_2_15: - 2 y_15 + x_0_15 + x_3_15 + x_11_15 + x_15_21 + x_15_22 + x_15_23
   + x_15_26 + x_15_29 + x_15_31 + x_15_32 + x_15_33 + x_15_34 + x_15_44
   + x_15_45 + x_15_49 = 0
 c_2_16: - 2 y_16 + x_3_16 + x_4_16 + x_6_16 + x_11_16 + x_16_17 + x_16_18
   + x_16_20 + x_16_27 + x_16_30 + x_16_32 + x_16_33 + x_16_35 + x_16_36
   + x_16_38 + x_16_46 + x_16_47 = 0
 c_2_17: - 2 y_17 + x_4_17 + x_5_17 + x_7_17 + x_8_17 + x_16_17 + x_17_20
   + x_17_31 + x_17_33 + x_17_35 + x_17_37 + x_17_39 + x_17_41 + x_17_45
   + x_17_48 + x_17_49 = 0
 c_2_18: - 2 y_18 + x_10_18 + x_13_18 + x_14_18 + x_16_18 + x_18_19
   + x_18_23 + x_18_32 + x_18_36 + x_18_38 + x_18_44 + x_18_47 + x_18_48
   = 0
 c_2_19: - 2 y_19 + x_0_19 + x_1_19 + x_9_19 + x_18_19 + x_19_20 + x_19_25
   + x_19_26 + x_19_27 + x_19_28 + x_19_33 + x_19_37 + x_19_43 + x_19_44
   + x_19_46 + x_19_48 = 0
 c_2_20: - 2 y_20 + x_0_20 + x_1_20 + x_2_20 + x_4_20 + x_9_20 + x_11_20
   + x_16_20 + x_17_20 + x_19_20 + x_20_23 + x_20_24 + x_20_26 + x_20_28
   + x_20_36 + x_20_38 + x_20_41 + x_20_42 + x_20_45 + x_20_46 = 0
 c_2_21: - 2 y_21 + x_10_21 + x_12_21 + x_13_21 + x_15_21 + x_21_25
   + x_21_29 + x_21_30 + x_21_33 + x_21_37 + x_21_38 + x_21_39 + x_21_42
   + x_21_45 + x_21_48 + x_21_49 = 0
 c_2_22: - 2 y_22 + x_0_22 + x_2_22 + x_5_22 + x_6_22 + x_8_22 + x_10_22
   + x_11_22 + x_12_22 + x_13_22 + x_15_22 + x_22_26 + x_22_33 + x_22_36
   + x_22_40 + x_22_42 + x_22_43 + x_22_48 + x_22_49 = 0
 c_2_23: - 2 y_23 + x_0_23 + x_2_23 + x_3_23 + x_6_23 + x_8_23 + x_10_23
   + x_11_23 + x_12_23 + x_15_23 + x_18_23 + x_20_23 + x_23_27 + x_23_32
   + x_23_36 + x_23_38 + x_23_40 + x_23_41 + x_23_43 + x_23_44 + x_23_45
   + x_23_47 = 0
 c_2_24: - 2 y_24 + x_0_24 + x_1_24 + x_3_24 + x_4_24 + x_6_24 + x_12_24
   + x_14_24 + x_20_24 + x_24_26 + x_24_32 + x_24_35 + x_24_36 + x_24_37
   + x_24_45 + x_24_46 + x_24_48 = 0
 c_2_25: - 2 y_25 + x_0_25 + x_5_25 + x_8_25 + x_11_25 + x_14_25 + x_19_25
   + x_21_25 + x_25_28 + x_25_34 + x_25_36 + x_25_43 + x_25_45 + x_25_46
   + x_25_47 + x_25_48 + x_25_49 = 0
 c_2_26: - 2 y_26 + x_2_26 + x_4_26 + x_9_26 + x_10_26 + x_12_26 + x_14_26
   + x_15_26 + x_19_26 + x_20_26 + x_22_26 + x_24_26 + x_26_28 + x_26_29
   + x_26_37 + x_26_38 + x_26_42 = 0
 c_2_27: - 2 y_27 + x_3_27 + x_6_27 + x_9_27 + x_10_27 + x_16_27 + x_19_27
   + x_23_27 + x_27_32 + x_27_36 + x_27_48 = 0
 c_2_28: - 2 y_28 + x_0_28 + x_3_28 + x_4_28 + x_6_28 + x_10_28 + x_14_28
   + x_19_28 + x_20_28 + x_25_28 + x_26_28 + x_28_34 + x_28_36 + x_28_42
   + x_28_44 + x_28_45 + x_28_47 = 0
 c_2_29: - 2 y_29 + x_0_29 + x_1_29 + x_9_29 + x_12_29 + x_15_29 + x_21_29
   + x_26_29 + x_29_34 + x_29_35 + x_29_39 + x_29_41 + x_29_46 = 0
 c_2_30: - 2 y_30 + x_0_30 + x_5_30 + x_8_30 + x_9_30 + x_13_30 + x_16_30
   + x_21_30 + x_30_32 + x_30_33 + x_30_36 + x_30_39 + x_30_40 + x_30_46
   + x_30_49 = 0
 c_2_31: - 2 y_31 + x_4_31 + x_8_31 + x_15_31 + x_17_31 + x_31_36 + x_31_41
   + x_31_45 = 0
 c_2_32: - 2 y_32 + x_1_32 + x_3_32 + x_7_32 + x_10_32 + x_11_32 + x_13_32
   + x_15_32 + x_16_32 + x_18_32 + x_23_32 + x_24_32 + x_27_32 + x_30_32
   + x_32_33 + x_32_40 + x_32_41 + x_32_43 + x_32_46 = 0
 c_2_33: - 2 y_33 + x_0_33 + x_1_33 + x_4_33 + x_6_33 + x_9_33 + x_14_33
   + x_15_33 + x_16_33 + x_17_33 + x_19_33 + x_21_33 + x_22_33 + x_30_33
   + x_32_33 + x_33_34 + x_33_37 + x_33_42 + x_33_45 = 0
 c_2_34: - 2 y_34 + x_0_34 + x_1_34 + x_2_34 + x_4_34 + x_5_34 + x_15_34
   + x_25_34 + x_28_34 + x_29_34 + x_33_34 + x_34_40 + x_34_45 + x_34_49
   = 0
 c_2_35: - 2 y_35 + x_5_35 + x_6_35 + x_9_35 + x_11_35 + x_16_35 + x_17_35
   + x_24_35 + x_29_35 + x_35_41 + x_35_43 + x_35_45 + x_35_46 + x_35_48
   = 0
 c_2_36: - 2 y_36 + x_1_36 + x_8_36 + x_12_36 + x_14_36 + x_16_36 + x_18_36
   + x_20_36 + x_22_36 + x_23_36 + x_24_36 + x_25_36 + x_27_36 + x_28_36
   + x_30_36 + x_31_36 = 0
 c_2_37: - 2 y_37 + x_0_37 + x_1_37 + x_5_37 + x_9_37 + x_10_37 + x_14_37
   + x_17_37 + x_19_37 + x_21_37 + x_24_37 + x_26_37 + x_33_37 + x_37_38
   + x_37_44 + x_37_45 + x_37_47 + x_37_49 = 0
 c_2_38: - 2 y_38 + x_1_38 + x_2_38 + x_7_38 + x_10_38 + x_16_38 + x_18_38
   + x_20_38 + x_21_38 + x_23_38 + x_26_38 + x_37_38 + x_38_8 + x_38_42
   + x_38_43 + x_38_44 + x_38_45 + x_38_46 = 0
 c_2_39: - 2 y_39 + x_0_39 + x_3_39 + x_6_39 + x_9_39 + x_11_39 + x_12_39
   + x_17_39 + x_21_39 + x_29_39 + x_30_39 + x_39_40 = 0
 c_2_40: - 2 y_40 + x_1_40 + x_2_40 + x_4_40 + x_7_40 + x_12_40 + x_22_40
   + x_23_40 + x_30_40 + x_32_40 + x_34_40 + x_39_40 + x_40_42 + x_40_43
   = 0
 c_2_41: - 2 y_41 + x_5_41 + x_6_41 + x_10_41 + x_11_41 + x_13_41 + x_17_41
   + x_20_41 + x_23_41 + x_29_41 + x_31_41 + x_32_41 + x_35_41 + x_41_43
   + x_41_46 = 0
 c_2_42: - 2 y_42 + x_3_42 + x_6_42 + x_11_42 + x_12_42 + x_13_42 + x_20_42
   + x_21_42 + x_22_42 + x_26_42 + x_28_42 + x_33_42 + x_38_42 + x_40_42
   + x_42_44 + x_42_46 + x_42_48 + x_42_49 = 0
 c_2_43: - 2 y_43 + x_6_43 + x_11_43 + x_19_43 + x_22_43 + x_23_43
   + x_25_43 + x_32_43 + x_35_43 + x_38_43 + x_40_43 + x_41_43 + x_43_45
   + x_43_47 = 0
 c_2_44: - 2 y_44 + x_1_44 + x_2_44 + x_3_44 + x_8_44 + x_10_44 + x_15_44
   + x_18_44 + x_19_44 + x_23_44 + x_28_44 + x_37_44 + x_38_44 + x_42_44
   = 0
 c_2_45: - 2 y_45 + x_2_45 + x_13_45 + x_15_45 + x_17_45 + x_20_45
   + x_21_45 + x_23_45 + x_24_45 + x_25_45 + x_28_45 + x_31_45 + x_33_45
   + x_34_45 + x_35_45 + x_37_45 + x_38_45 + x_43_45 + x_45_47 = 0
 c_2_46: - 2 y_46 + x_0_46 + x_5_46 + x_16_46 + x_19_46 + x_20_46 + x_24_46
   + x_25_46 + x_29_46 + x_30_46 + x_32_46 + x_35_46 + x_38_46 + x_41_46
   + x_42_46 + x_46_49 = 0
 c_2_47: - 2 y_47 + x_12_47 + x_16_47 + x_18_47 + x_23_47 + x_25_47
   + x_28_47 + x_37_47 + x_43_47 + x_45_47 + x_47_48 = 0
 c_2_48: - 2 y_48 + x_1_48 + x_6_48 + x_9_48 + x_10_48 + x_17_48 + x_18_48
   + x_19_48 + x_21_48 + x_22_48 + x_24_48 + x_25_48 + x_27_48 + x_35_48
   + x_42_48 + x_47_48 = 0
 c_2_49: - 2 y_49 + x_2_49 + x_4_49 + x_9_49 + x_14_49 + x_15_49 + x_17_49
   + x_21_49 + x_22_49 + x_25_49 + x_30_49 + x_34_49 + x_37_49 + x_42_49
   + x_46_49 = 0
Bounds
 Constant = 1
Binaries
 y_0 y_1 y_2 y_3 y_4 y_5 y_6 y_7 y_8 y_9 y_10 y_11 y_12 y_13 y_14 y_15 y_16
 y_17 y_18 y_19 y_20 y_21 y_22 y_23 y_24 y_25 y_26 y_27 y_28 y_29 y_30 y_31
 y_32 y_33 y_34 y_35 y_36 y_37 y_38 y_39 y_40 y_41 y_42 y_43 y_44 y_45 y_46
 y_47 y_48 y_49 x_0_9 x_0_10 x_0_12 x_0_15 x_0_19 x_0_20 x_0_22 x_0_23
 x_0_24 x_0_25 x_0_28 x_0_29 x_0_30 x_0_33 x_0_34 x_0_37 x_0_39 x_0_46
 x_1_5 x_1_6 x_1_7 x_1_12 x_1_13 x_1_19 x_1_20 x_1_24 x_1_29 x_1_32 x_1_33
 x_1_34 x_1_36 x_1_37 x_1_38 x_1_40 x_1_44 x_1_48 x_2_4 x_2_6 x_2_8 x_2_11
 x_2_13 x_2_20 x_2_22 x_2_23 x_2_26 x_2_34 x_2_38 x_2_40 x_2_44 x_2_45
 x_2_49 x_3_4 x_3_7 x_3_10 x_3_13 x_3_15 x_3_16 x_3_23 x_3_24 x_3_27 x_3_28
 x_3_32 x_3_39 x_3_42 x_3_44 x_4_5 x_4_8 x_4_13 x_4_16 x_4_17 x_4_20 x_4_24
 x_4_26 x_4_28 x_4_31 x_4_33 x_4_34 x_4_40 x_4_49 x_5_9 x_5_13 x_5_17
 x_5_22 x_5_25 x_5_30 x_5_34 x_5_35 x_5_37 x_5_41 x_5_46 x_6_7 x_6_13
 x_6_16 x_6_22 x_6_23 x_6_24 x_6_27 x_6_28 x_6_33 x_6_35 x_6_39 x_6_41
 x_6_42 x_6_43 x_6_48 x_7_9 x_7_11 x_7_13 x_7_17 x_7_32 x_7_38 x_7_40
 x_8_17 x_8_22 x_8_23 x_8_25 x_8_30 x_8_31 x_8_36 x_8_44 x_9_11 x_9_19
 x_9_20 x_9_26 x_9_27 x_9_29 x_9_30 x_9_33 x_9_35 x_9_37 x_9_39 x_9_48
 x_9_49 x_10_11 x_10_18 x_10_21 x_10_22 x_10_23 x_10_26 x_10_27 x_10_28
 x_10_32 x_10_37 x_10_38 x_10_41 x_10_44 x_10_48 x_11_12 x_11_15 x_11_16
 x_11_20 x_11_22 x_11_23 x_11_25 x_11_32 x_11_35 x_11_39 x_11_41 x_11_42
 x_11_43 x_12_21 x_12_22 x_12_23 x_12_24 x_12_26 x_12_29 x_12_36 x_12_39
 x_12_40 x_12_42 x_12_47 x_13_18 x_13_21 x_13_22 x_13_30 x_13_32 x_13_41
 x_13_42 x_13_45 x_14_18 x_14_24 x_14_25 x_14_26 x_14_28 x_14_33 x_14_36
 x_14_37 x_14_49 x_15_21 x_15_22 x_15_23 x_15_26 x_15_29 x_15_31 x_15_32
 x_15_33 x_15_34 x_15_44 x_15_45 x_15_49 x_16_17 x_16_18 x_16_20 x_16_27
 x_16_30 x_16_32 x_16_33 x_16_35 x_16_36 x_16_38 x_16_46 x_16_47 x_17_20
 x_17_31 x_17_33 x_17_35 x_17_37 x_17_39 x_17_41 x_17_45 x_17_48 x_17_49
 x_18_19 x_18_23 x_18_32 x_18_36 x_18_38 x_18_44 x_18_47 x_18_48 x_19_20
 x_19_25 x_19_26 x_19_27 x_19_28 x_19_33 x_19_37 x_19_43 x_19_44 x_19_46
 x_19_48 x_20_23 x_20_24 x_20_26 x_20_28 x_20_36 x_20_38 x_20_41 x_20_42
 x_20_45 x_20_46 x_21_25 x_21_29 x_21_30 x_21_33 x_21_37 x_21_38 x_21_39
 x_21_42 x_21_45 x_21_48 x_21_49 x_22_26 x_22_33 x_22_36 x_22_40 x_22_42
 x_22_43 x_22_48 x_22_49 x_23_27 x_23_32 x_23_36 x_23_38 x_23_40 x_23_41
 x_23_43 x_23_44 x_23_45 x_23_47 x_24_26 x_24_32 x_24_35 x_24_36 x_24_37
 x_24_45 x_24_46 x_24_48 x_25_28 x_25_34 x_25_36 x_25_43 x_25_45 x_25_46
 x_25_47 x_25_48 x_25_49 x_26_28 x_26_29 x_26_37 x_26_38 x_26_42 x_27_32
 x_27_36 x_27_48 x_28_34 x_28_36 x_28_42 x_28_44 x_28_45 x_28_47 x_29_34
 x_29_35 x_29_39 x_29_41 x_29_46 x_30_32 x_30_33 x_30_36 x_30_39 x_30_40
 x_30_46 x_30_49 x_31_36 x_31_41 x_31_45 x_32_33 x_32_40 x_32_41 x_32_43
 x_32_46 x_33_34 x_33_37 x_33_42 x_33_45 x_34_40 x_34_45 x_34_49 x_35_41
 x_35_43 x_35_45 x_35_46 x_35_48 x_37_38 x_37_44 x_37_45 x_37_47 x_37_49
 x_38_8 x_38_42 x_38_43 x_38_44 x_38_45 x_38_46 x_39_40 x_40_42 x_40_43
 x_41_43 x_41_46 x_42_44 x_42_46 x_42_48 x_42_49 x_43_45 x_43_47 x_45_47
 x_46_49 x_47_48
End
